p cnf 37 106
a 29 7 0
e 1 2 3 4 5 6 8 9 10 11 12 13 14 15 16 17 18 19 20 21 22 23 24 25 26 27 28 30 31 32 33 34 35 36 37 0
-3 -2 0
-3 1 0
2 -1 3 0
5 -3 0
5 -4 0
3 4 -5 0
-6 1 0
-6 -5 0
-1 5 6 0
3 -8 -9 0
-3 8 -9 0
3 8 9 0
-3 -8 9 0
-10 -5 0
-10 -9 0
5 9 10 0
-11 -7 0
-11 -10 0
7 10 11 0
-12 -2 0
-12 -11 0
2 11 12 0
-13 -5 0
-13 10 0
5 -10 13 0
14 8 0
14 -1 0
-8 1 -14 0
-13 -14 -15 0
13 14 -15 0
-13 14 15 0
13 -14 15 0
16 -14 0
16 9 0
14 -9 -16 0
-17 -15 0
-17 -16 0
15 16 17 0
12 17 -18 0
-12 -17 -18 0
12 -17 18 0
-12 17 18 0
-19 6 0
-19 18 0
-6 -18 19 0
5 -11 -20 0
-5 11 -20 0
5 11 20 0
-5 -11 20 0
21 3 0
21 3 0
-3 -21 0
-22 4 0
-22 -21 0
-4 21 22 0
-24 13 0
-24 -23 0
-13 23 24 0
22 -24 -25 0
-22 24 -25 0
22 24 25 0
-22 -24 25 0
5 1 -27 0
-5 -1 -27 0
5 -1 27 0
-5 1 27 0
-28 15 0
-28 -27 0
-15 27 28 0
29 26 0
29 28 0
-26 -28 -29 0
31 -7 0
31 -30 0
7 30 -31 0
32 2 0
32 -28 0
-2 28 -32 0
-33 -31 0
-33 -32 0
31 32 33 0
-29 33 -34 0
29 -33 -34 0
-29 -33 34 0
29 33 34 0
35 -25 0
35 -34 0
25 34 -35 0
-20 -35 -36 0
20 35 -36 0
-20 35 36 0
20 -35 36 0
37 19 0
37 36 0
-19 -36 -37 0
31 20 -30 9 23 12 0
24 33 35 4 -23 0
2 -25 29 37 0
-9 34 -20 23 0
-17 -8 -18 -1 -25 13 31 0
-25 -14 35 0
25 -17 -14 7 13 0
-27 22 -37 36 5 0
13 -6 -10 29 0
30 3 37 0
37 0
